
Gurobi 12.0.2 (win64) logging started Mon Sep 15 14:20:17 2025

Set parameter LogFile to value "C:\Ioana\_uni\honours\slp\algorithm\Main_files\results\paracetamol with updated samples\Task_002_Sample006_irr_gurobi.log"
Gurobi Optimizer version 12.0.2 build v12.0.2rc0 (win64 - Windows 11.0 (26100.2))

CPU model: Intel(R) Core(TM) Ultra 5 125H, instruction set [SSE2|AVX|AVX2]
Thread count: 14 physical cores, 18 logical processors, using up to 18 threads

Non-default parameters:
TimeLimit  2200

Optimize a model with 47236 rows, 34503 columns and 146713 nonzeros
Model fingerprint: 0xa7d17a49
Variable types: 17254 continuous, 17249 integer (17249 binary)
Coefficient statistics:
  Matrix range     [1e-04, 8e+04]
  Objective range  [1e-04, 9e-01]
  Bounds range     [1e+00, 1e+03]
  RHS range        [1e+00, 1e+00]
Found heuristic solution: objective 0.0351012
Presolve removed 41920 rows and 30100 columns
Presolve time: 0.34s
Presolved: 5316 rows, 4403 columns, 15931 nonzeros
Variable types: 2189 continuous, 2214 integer (2214 binary)

Root relaxation: objective 1.243160e-02, 179 iterations, 0.00 seconds (0.01 work units)

    Nodes    |    Current Node    |     Objective Bounds      |     Work
 Expl Unexpl |  Obj  Depth IntInf | Incumbent    BestBd   Gap | It/Node Time

     0     0    0.01243    0    2    0.03510    0.01243  64.6%     -    0s
H    0     0                       0.0165885    0.01243  25.1%     -    0s
     0     0    0.01243    0    2    0.01659    0.01243  25.1%     -    0s

Explored 1 nodes (179 simplex iterations) in 0.41 seconds (0.40 work units)
Thread count was 18 (of 18 available processors)

Solution count 2: 0.0165885 0.0351012 

Optimal solution found (tolerance 1.00e-04)
Best objective 1.658846750472e-02, best bound 1.658846750472e-02, gap 0.0000%
